! SP HF 6-31G(d)

%pal
nprocs 4
end

%maxcore
4000
end
* xyz 0 1
  C      2.497967    -1.108876     0.003944
  C      1.182094    -0.468203    -0.432063
  C      0.006669    -0.987851     0.400303
  C     -1.340343    -0.465471    -0.134566
  C     -2.390879    -0.484712     0.977174
  C     -1.225529     0.929611    -0.775645
  C     -0.090052     1.747758    -0.174021
  C      1.269001     1.065914    -0.353423
  H      2.720856    -0.887153     1.053141
  H      2.455558    -2.197269    -0.109180
  H      3.329465    -0.740149    -0.605853
  H      1.009735    -0.750646    -1.479634
  H     -0.009854    -2.084959     0.396315
  H      0.145624    -0.685851     1.447144
  H     -1.688204    -1.153518    -0.916838
  H     -2.480621    -1.487249     1.408775
  H     -3.374040    -0.200206     0.587566
  H     -2.132133     0.210849     1.782572
  H     -2.170730     1.478238    -0.690368
  H     -1.037431     0.812076    -1.851024
  H     -0.061062     2.745558    -0.626497
  H     -0.281861     1.897857     0.895839
  H      1.923475     1.380560     0.469135
  H      1.742295     1.433692    -1.272795
*