! Opt PBE0 6-311G(d,p)

%pal
nprocs 3
end

%maxcore
4000

* xyz 0 1
  C      1.356021     0.482144    -0.445466
  C      0.595248    -0.666179     0.159512
  C     -0.702121    -0.225473     0.801000
  B     -1.608603     0.448286    -0.310788
  H      2.147779     0.039254    -1.095955
  H      1.881099     1.107949     0.293668
  H      0.729435     1.124912    -1.058273
  H      1.251775    -1.199003     0.866650
  H      0.362303    -1.381557    -0.656063
  H     -1.234153    -1.173480     1.092657
  H     -0.563633     0.387625     1.685683
  H     -2.428760     1.276154    -0.039455
  H     -1.786390    -0.220633    -1.293171
*